Using license file /home/benedond/gurobi.lic
Using gurobi.env file
Set parameter Threads to value 1
Academic license - for non-commercial use only
Changed value of parameter TimeLimit to 300.0
   Prev: inf  Min: 0.0  Max: inf  Default: inf
Gurobi Optimizer version 9.0.1 build v9.0.1rc0 (linux64)
Optimize a model with 4513 rows, 4287 columns and 20919 nonzeros
Model fingerprint: 0x455c7c2b
Variable types: 90 continuous, 4197 integer (4197 binary)
Coefficient statistics:
  Matrix range     [2e-01, 5e+02]
  Objective range  [5e-03, 2e-01]
  Bounds range     [1e+00, 1e+00]
  RHS range        [1e+00, 2e+03]
Presolve removed 139 rows and 102 columns
Presolve time: 0.08s
Presolved: 4374 rows, 4185 columns, 20432 nonzeros
Variable types: 89 continuous, 4096 integer (4096 binary)

Root relaxation: objective 1.948957e+00, 5086 iterations, 0.33 seconds

    Nodes    |    Current Node    |     Objective Bounds      |     Work
 Expl Unexpl |  Obj  Depth IntInf | Incumbent    BestBd   Gap | It/Node Time

     0     0    1.94896    0  282          -    1.94896      -     -    0s
     0     0    2.08296    0  298          -    2.08296      -     -    0s
H    0     0                       4.3820870    2.08296  52.5%     -    0s
H    0     0                       3.3748116    2.08296  38.3%     -    1s
     0     0    2.08305    0  297    3.37481    2.08305  38.3%     -    1s
     0     0    2.17668    0  248    3.37481    2.17668  35.5%     -    2s
     0     0    2.17893    0  271    3.37481    2.17893  35.4%     -    2s
     0     0    2.24785    0  283    3.37481    2.24785  33.4%     -    2s
     0     0    2.29354    0  251    3.37481    2.29354  32.0%     -    2s
     0     0    2.30630    0  251    3.37481    2.30630  31.7%     -    2s
     0     0    2.30784    0  269    3.37481    2.30784  31.6%     -    2s
     0     0    2.30813    0  253    3.37481    2.30813  31.6%     -    2s
     0     0    2.30823    0  240    3.37481    2.30823  31.6%     -    3s
     0     0    2.35883    0  255    3.37481    2.35883  30.1%     -    3s
     0     0    2.37113    0  282    3.37481    2.37113  29.7%     -    3s
     0     0    2.37447    0  242    3.37481    2.37447  29.6%     -    3s
     0     0    2.37574    0  222    3.37481    2.37574  29.6%     -    3s
     0     0    2.37600    0  225    3.37481    2.37600  29.6%     -    3s
     0     0    2.39304    0  264    3.37481    2.39304  29.1%     -    3s
     0     0    2.39670    0  259    3.37481    2.39670  29.0%     -    4s
     0     0    2.39725    0  270    3.37481    2.39725  29.0%     -    4s
     0     0    2.39752    0  292    3.37481    2.39752  29.0%     -    4s
     0     0    2.40495    0  240    3.37481    2.40495  28.7%     -    4s
     0     0    2.40560    0  206    3.37481    2.40560  28.7%     -    4s
     0     0    2.40573    0  245    3.37481    2.40573  28.7%     -    4s
     0     0    2.41004    0  222    3.37481    2.41004  28.6%     -    4s
     0     0    2.41077    0  219    3.37481    2.41077  28.6%     -    4s
     0     0    2.41095    0  219    3.37481    2.41095  28.6%     -    4s
     0     0    2.41881    0  258    3.37481    2.41881  28.3%     -    4s
     0     0    2.42217    0  260    3.37481    2.42217  28.2%     -    4s
     0     0    2.42293    0  266    3.37481    2.42293  28.2%     -    4s
     0     0    2.42312    0  273    3.37481    2.42312  28.2%     -    4s
     0     0    2.42805    0  270    3.37481    2.42805  28.1%     -    5s
     0     0    2.42928    0  327    3.37481    2.42928  28.0%     -    5s
     0     0    2.42961    0  305    3.37481    2.42961  28.0%     -    5s
     0     0    2.43153    0  251    3.37481    2.43153  28.0%     -    5s
     0     0    2.43214    0  270    3.37481    2.43214  27.9%     -    5s
     0     0    2.43278    0  275    3.37481    2.43278  27.9%     -    5s
     0     0    2.43329    0  271    3.37481    2.43329  27.9%     -    5s
     0     0    2.43339    0  274    3.37481    2.43339  27.9%     -    5s
     0     0    2.43577    0  260    3.37481    2.43577  27.8%     -    5s
     0     0    2.43670    0  240    3.37481    2.43670  27.8%     -    5s
     0     0    2.43717    0  303    3.37481    2.43717  27.8%     -    5s
     0     0    2.43723    0  304    3.37481    2.43723  27.8%     -    5s
     0     0    2.43857    0  293    3.37481    2.43857  27.7%     -    5s
     0     0    2.43857    0  293    3.37481    2.43857  27.7%     -    7s
     0     2    2.43901    0  293    3.37481    2.43901  27.7%     -    7s
    12    14    2.53085    8  261    3.37481    2.44160  27.7%   545   10s
H   27    27                       3.2000387    2.44160  23.7%   437   15s
H   99    99                       3.1793961    2.44160  23.2%   351   21s
H  203   188                       3.1318454    2.44160  22.0%   277   25s
   277   258    2.64362   66  170    3.13185    2.44563  21.9%   294   30s
   461   410    2.64265   31  320    3.13185    2.44753  21.9%   251   35s
   511   459    2.74746   70  293    3.13185    2.44753  21.9%   266   41s
   521   466    2.57011   49  298    3.13185    2.45774  21.5%   261   45s
   536   476    2.82572   80  342    3.13185    2.50022  20.2%   254   50s
   538   477    2.56054   39  342    3.13185    2.50378  20.1%   253   55s
   548   484    2.81345   58  321    3.13185    2.52142  19.5%   248   60s
   564   494    2.56818   47  366    3.13185    2.53360  19.1%   241   65s
   579   504    2.54090   12  439    3.13185    2.54090  18.9%   235   70s
   593   514    2.72914   62  426    3.13185    2.54726  18.7%   230   75s
   606   522    2.75340   99  501    3.13185    2.55310  18.5%   225   80s
   618   530    2.75864   70  448    3.13185    2.55757  18.3%   220   85s
   630   538    2.95787  140  455    3.13185    2.56078  18.2%   216   90s
   643   548    2.71365   32  366    3.13185    2.56119  18.2%   333   95s
   654   556    2.74698   48  503    3.13185    2.56279  18.2%   327  106s
   664   562    2.56818   47  477    3.13185    2.56502  18.1%   323  110s
   673   568    2.65431    8  448    3.13185    2.56666  18.0%   318  115s
   674   569    2.77480  106  467    3.13185    2.56683  18.0%   318  126s
   677   573    2.56784   21  404    3.13185    2.56784  18.0%   364  137s
   678   574    2.66292   21  272    3.13185    2.56784  18.0%   367  143s
   681   576    2.56822   23  395    3.13185    2.56822  18.0%   368  145s
   686   579    2.58053   25  327    3.13185    2.56853  18.0%   378  151s
   688   580    2.80033   26  326    3.13185    2.56898  18.0%   381  157s
   693   584    2.57130   29  334    3.13185    2.57018  17.9%   384  160s
   701   589    2.57511   33  377    3.13185    2.57486  17.8%   398  165s
   703   590    2.57704   34  385    3.13185    2.57512  17.8%   400  171s
   712   596    2.70526   38  302    3.13185    2.57515  17.8%   407  175s
   722   603    2.65175   43  321    3.13185    2.57515  17.8%   418  180s
   734   611    2.63801   49  227    3.13185    2.57515  17.8%   433  185s
   741   616    2.61391   53  316    3.13185    2.57515  17.8%   452  190s
   759   628    2.62789   62  356    3.13185    2.57515  17.8%   469  195s
   768   634    2.70664   66  255    3.13185    2.57515  17.8%   479  200s
   781   642    2.65819   73  245    3.13185    2.57515  17.8%   491  205s
   794   650    3.11238   79  305    3.13185    2.57515  17.8%   499  210s
   814   663    2.72886   89  223    3.13185    2.57515  17.8%   513  215s
   834   677    2.78332   99  263    3.13185    2.57515  17.8%   528  220s
   857   692    2.81106  111  225    3.13185    2.57515  17.8%   537  225s
   906   715    2.93775  135  170    3.13185    2.57515  17.8%   540  230s
   969   753    2.90165  167  172    3.13185    2.57515  17.8%   538  235s
  1040   756    2.58711   30  400    3.13185    2.57517  17.8%   532  240s
  1049   762    2.64101   34  286    3.13185    2.57517  17.8%   539  245s
  1066   773    2.64914   43  258    3.13185    2.57517  17.8%   552  250s
  1090   789    2.63546   55  372    3.13185    2.57517  17.8%   561  255s
  1115   806    2.81367   67  221    3.13185    2.57517  17.8%   569  260s
  1141   823    2.72526   80  231    3.13185    2.57517  17.8%   578  265s
  1168   841    2.70158   94  231    3.13185    2.57517  17.8%   583  270s
  1183   851    2.82803  101  244    3.13185    2.57517  17.8%   585  275s
  1213   865     cutoff  116         3.13185    2.57517  17.8%   591  280s
  1266   892    2.92908  143  178    3.13185    2.57517  17.8%   592  285s
  1332   914    3.08711  176  118    3.13185    2.57517  17.8%   590  290s
  1383   916    2.87473   38  196    3.13185    2.58053  17.6%   584  295s

Cutting planes:
  Gomory: 2
  Cover: 14
  Implied bound: 8
  Clique: 3
  MIR: 233
  Flow cover: 512
  Zero half: 1
  RLT: 20
  Relax-and-lift: 227

Explored 1393 nodes (840228 simplex iterations) in 300.00 seconds
Thread count was 1 (of 4 available processors)

Solution count 5: 3.13185 3.1794 3.20004 ... 4.38209

Time limit reached
Best objective 3.131845411241e+00, best bound 2.580532227229e+00, gap 17.6035%
